35 40
10 8 3
5 6 1
2 3 1
10 10 1
8 8 1
2 2 1
6 2 2
6 10 1
9 2 2
8 5 1
9 3 1
1 2 1
5 9 1
8 7 1
8 2 1
8 3 2
3 2 1
2 4 1
6 8 1
3 6 1
10 5 1
10 3 1
5 8 1
10 9 1
5 1 1
5 5 1
7 5 1
10 4 1
10 2 1
1 8 1
2 10 1
8 10 1
4 8 1
2 8 1
1 7 1
30 30 
30 30 
30 30 
30 30 
30 30 
30 30 
30 30 
30 30 
30 30 
30 30 
30 30 
30 30 
30 30 
30 30 
30 30 
30 30 
30 30 
30 30 
30 30 
30 30 
30 30 
30 30 
30 30 
30 30 
30 30 
30 30 
30 30 
30 30 
30 30 
30 30 
30 30 
30 30 
30 30 
30 30 
30 30 
30 30 
30 30 
30 30 
30 30 
30 30 
